p wcnf 154 231 232 
1 60 -63 0 
1 -35 72 0 
1 58 4 0 
1 -11 -113 0 
1 99 -80 0 
1 -129 121 0 
1 -120 -43 0 
1 -25 -3 0 
1 -87 72 0 
1 119 -123 0 
1 75 154 0 
1 114 66 0 
1 154 112 0 
1 150 47 0 
1 42 -91 0 
1 -76 -138 0 
1 -63 -47 0 
1 -113 -42 0 
1 58 -65 0 
1 26 6 0 
1 -80 -56 0 
1 -32 84 0 
1 -11 -107 0 
1 12 136 0 
1 -94 -86 0 
1 -144 -117 0 
1 -48 -127 0 
1 84 144 0 
1 -154 -103 0 
1 -27 -85 0 
1 -14 86 0 
1 -66 126 0 
1 39 -103 0 
1 111 -72 0 
1 -154 107 0 
1 147 128 0 
1 -152 -126 0 
1 140 46 0 
1 93 -14 0 
1 -90 -85 0 
1 -66 51 0 
1 -82 105 0 
1 -142 -55 0 
1 65 133 0 
1 -88 49 0 
1 16 -106 0 
1 -35 95 0 
1 -93 -119 0 
1 -83 -102 0 
1 101 113 0 
1 14 81 0 
1 -147 85 0 
1 -16 -61 0 
1 -82 11 0 
1 83 18 0 
1 133 -29 0 
1 46 151 0 
1 -49 73 0 
1 62 111 0 
1 -101 7 0 
1 44 -37 0 
1 71 122 0 
1 -51 142 0 
1 144 -79 0 
1 -133 -126 0 
1 9 65 0 
1 -52 -13 0 
1 -122 115 0 
1 -79 -151 0 
1 -51 31 0 
1 -113 -60 0 
1 12 41 0 
1 101 150 0 
1 -54 104 0 
1 53 26 0 
1 142 -15 0 
1 -128 -148 0 
1 -147 95 0 
1 -138 -131 0 
1 -3 103 0 
1 52 123 0 
1 42 -116 0 
1 154 110 0 
1 -83 151 0 
1 -84 -60 0 
1 -71 10 0 
1 -104 130 0 
1 123 -132 0 
1 -50 -39 0 
1 -57 154 0 
1 88 42 0 
1 -30 -129 0 
1 -54 -65 0 
1 -80 -135 0 
1 -106 36 0 
1 -113 99 0 
1 143 115 0 
1 32 46 0 
1 -111 -41 0 
1 11 -154 0 
1 -133 152 0 
1 41 -15 0 
1 102 15 0 
1 109 51 0 
1 83 21 0 
1 89 -151 0 
1 -103 74 0 
1 136 -86 0 
1 -29 -102 0 
1 104 -57 0 
1 -49 -41 0 
1 49 121 0 
1 100 84 0 
1 122 74 0 
1 56 30 0 
1 -100 136 0 
1 -35 -71 0 
1 -31 -117 0 
1 5 -82 0 
1 137 -136 0 
1 -94 25 0 
1 -20 -131 0 
1 -118 93 0 
1 41 118 0 
1 149 -92 0 
1 41 -122 0 
1 75 107 0 
1 48 27 0 
1 -73 -64 0 
1 76 109 0 
1 105 -67 0 
1 35 129 0 
1 29 142 0 
1 42 -6 0 
1 145 -8 0 
1 68 45 0 
1 -11 -105 0 
1 36 38 0 
1 -109 -37 0 
1 -28 26 0 
1 -89 154 0 
1 140 -40 0 
1 -17 14 0 
1 20 68 0 
1 -53 105 0 
1 -58 -79 0 
1 118 37 0 
1 110 -152 0 
1 -118 105 0 
1 -82 -86 0 
1 40 114 0 
1 -104 -66 0 
1 -134 -98 0 
1 -82 -62 0 
1 147 -125 0 
1 -129 81 0 
1 34 -83 0 
1 37 109 0 
1 24 -123 0 
1 -150 -31 0 
1 85 -86 0 
1 34 13 0 
1 145 85 0 
1 94 142 0 
1 -93 -76 0 
1 -35 129 0 
1 119 37 0 
1 -126 140 0 
1 132 143 0 
1 -46 103 0 
1 57 52 0 
1 -5 -106 0 
1 31 -103 0 
1 36 -142 0 
1 -95 -93 0 
1 -134 -48 0 
1 -120 154 0 
1 -27 45 0 
1 64 -117 0 
1 -86 61 0 
1 24 -86 0 
1 73 -154 0 
1 -6 -98 0 
1 -59 -92 0 
1 129 -42 0 
1 -92 130 0 
1 -33 6 0 
1 -152 -57 0 
1 -57 -55 0 
1 18 -95 0 
1 -74 -124 0 
1 -38 81 0 
1 85 -27 0 
1 125 62 0 
1 -129 -50 0 
1 124 -33 0 
1 141 -88 0 
1 -98 10 0 
1 -148 -96 0 
1 57 -65 0 
1 5 141 0 
1 -13 85 0 
1 144 -46 0 
1 -45 4 0 
1 -18 55 0 
1 22 50 0 
1 69 117 0 
1 -133 8 0 
1 123 52 0 
1 99 133 0 
1 108 148 0 
1 32 141 0 
1 118 -74 0 
1 -147 60 0 
1 112 8 0 
1 9 -30 0 
1 -14 -13 0 
1 -80 -18 0 
1 -134 18 0 
1 60 -151 0 
1 -111 72 0 
1 -103 -35 0 
1 63 60 0 
1 2 72 0 
1 16 -13 0 
1 -14 -102 0 
1 95 61 0 
1 22 141 0 
1 -66 -107 0 
1 154 40 0 
1 134 107 0 
